lbl,CUST NO.,READY TIME,XCOORD.,YCOORD.,DEMAND,DUE DATE,SERVICE TIME
5,114,65,39,128,10,133,90
5,159,137,40,132,20,182,90
5,38,215,43,135,10,293,90
5,150,310,42,136,10,381,90
5,22,410,43,140,10,470,90
5,151,509,36,132,10,571,90
5,16,598,36,135,10,669,90
5,140,704,34,138,20,749,90
5,187,792,30,136,10,850,90
5,142,890,33,133,20,941,90
5,111,979,33,131,30,1037,90
5,63,1079,32,128,20,1123,90
5,56,1130,35,123,20,1198,90
